language ESSENCE' 1.0
letting AssignmentMatrix be [[0, 0, 0, 0, 0, 1, 1, 1], 
[0, 0, 0, 1, 1, 0, 0, 0], 
[0, 0, 0, 0, 0, 0, 0, 0], 
[0, 0, 1, 0, 0, 0, 0, 0], 
[1, 1, 0, 0, 0, 0, 0, 0]]
letting OccupancyVector be [1, 1, 1, 1, 1, 1, 1, 1]
letting Price be [210, 210, 210, 116, 116, 116, 116, 116]
letting VMType be [341, 341, 341, 433, 433, 433, 433, 433]
